6 6 84
6 3 1 3 2 5 1 1 3 6 3 6 4 2 12 12 34 34 44 46 58 58 74 74 84 
6 1 1 1 2 2 1 5 2 5 3 5 4 4 16 16 34 34 46 46 60 60 76 76 84 
4 4 1 4 2 4 3 3 3 24 35 35 56 56 65 66 75 
4 6 1 6 2 2 2 2 3 26 35 35 48 54 73 73 84 
10 3 1 6 1 6 1 2 1 2 1 5 2 5 2 2 2 6 3 3 3 0 2 2 14 14 26 26 28 28 32 32 44 44 46 46 54 54 58 58 66 
7 1 1 4 1 4 1 5 1 5 1 1 3 1 3 0 4 4 14 14 24 24 28 28 30 32 34 34 46 
